<?xml version = "1.0" standalone="yes"?>
<!-- This file has been generated by DOcplex version 2.23.222  -->
<CPLEXSolution version="1.0">
 <header
   problemName="CVRP"
   objectiveValue="21535.9"
  />
 <variables>
  <variable name="x_0_2" index="1" value="1.00000"/>
  <variable name="x_0_5" index="4" value="1.00000"/>
  <variable name="x_0_7" index="6" value="1.00000"/>
  <variable name="x_0_8" index="7" value="1.00000"/>
  <variable name="x_0_9" index="8" value="1.00000"/>
  <variable name="x_0_10" index="9" value="1.00000"/>
  <variable name="x_0_12" index="11" value="1.00000"/>
  <variable name="x_0_14" index="13" value="1.00000"/>
  <variable name="x_0_15" index="14" value="1.00000"/>
  <variable name="x_0_17" index="16" value="1.00000"/>
  <variable name="x_0_18" index="17" value="1.00000"/>
  <variable name="x_0_20" index="19" value="1.00000"/>
  <variable name="x_0_21" index="20" value="1.00000"/>
  <variable name="x_0_22" index="21" value="1.00000"/>
  <variable name="x_0_24" index="23" value="1.00000"/>
  <variable name="x_0_25" index="24" value="1.00000"/>
  <variable name="x_0_26" index="25" value="1.00000"/>
  <variable name="x_1_0" index="27" value="1.00000"/>
  <variable name="x_2_0" index="54" value="1.00000"/>
  <variable name="x_3_0" index="81" value="1.00000"/>
  <variable name="x_4_0" index="108" value="1.00000"/>
  <variable name="x_5_0" index="135" value="1.00000"/>
  <variable name="x_6_27" index="188" value="1.00000"/>
  <variable name="x_7_13" index="201" value="1.00000"/>
  <variable name="x_8_19" index="234" value="1.00000"/>
  <variable name="x_9_0" index="243" value="1.00000"/>
  <variable name="x_10_11" index="280" value="1.00000"/>
  <variable name="x_11_0" index="297" value="1.00000"/>
  <variable name="x_12_0" index="324" value="1.00000"/>
  <variable name="x_13_0" index="351" value="1.00000"/>
  <variable name="x_14_0" index="378" value="1.00000"/>
  <variable name="x_15_4" index="409" value="1.00000"/>
  <variable name="x_16_3" index="435" value="1.00000"/>
  <variable name="x_17_0" index="459" value="1.00000"/>
  <variable name="x_18_0" index="486" value="1.00000"/>
  <variable name="x_19_0" index="513" value="1.00000"/>
  <variable name="x_20_0" index="540" value="1.00000"/>
  <variable name="x_21_1" index="568" value="1.00000"/>
  <variable name="x_22_0" index="594" value="1.00000"/>
  <variable name="x_23_16" index="637" value="1.00000"/>
  <variable name="x_24_23" index="671" value="1.00000"/>
  <variable name="x_25_6" index="681" value="1.00000"/>
  <variable name="x_26_0" index="702" value="1.00000"/>
  <variable name="x_27_0" index="729" value="1.00000"/>
  <variable name="u_1" index="756" value="53.00000"/>
  <variable name="u_2" index="757" value="35.00000"/>
  <variable name="u_3" index="758" value="64.00000"/>
  <variable name="u_4" index="759" value="63.00000"/>
  <variable name="u_5" index="760" value="43.00000"/>
  <variable name="u_6" index="761" value="59.00000"/>
  <variable name="u_7" index="762" value="31.00000"/>
  <variable name="u_8" index="763" value="49.00000"/>
  <variable name="u_9" index="764" value="49.00000"/>
  <variable name="u_10" index="765" value="41.00000"/>
  <variable name="u_11" index="766" value="65.00000"/>
  <variable name="u_12" index="767" value="65.00000"/>
  <variable name="u_13" index="768" value="64.00000"/>
  <variable name="u_14" index="769" value="65.00000"/>
  <variable name="u_15" index="770" value="4.00000"/>
  <variable name="u_16" index="771" value="24.00000"/>
  <variable name="u_17" index="772" value="65.00000"/>
  <variable name="u_18" index="773" value="42.00000"/>
  <variable name="u_19" index="774" value="65.00000"/>
  <variable name="u_20" index="775" value="52.00000"/>
  <variable name="u_21" index="776" value="41.00000"/>
  <variable name="u_22" index="777" value="47.00000"/>
  <variable name="u_23" index="778" value="5.00000"/>
  <variable name="u_24" index="779" value="1.00000"/>
  <variable name="u_25" index="780" value="25.00000"/>
  <variable name="u_26" index="781" value="65.00000"/>
  <variable name="u_27" index="782" value="62.00000"/>
 </variables>
</CPLEXSolution>
